Route #1: 16 27 49 45 21 10 3 38 36 18
Route #2: 50 42 14 39 37 23
Route #3: 24 44 6 31 11 1
Route #4: 35 7 32 47 43 20 30
Route #5: 26 19 12 17 41 5
Route #6: 29 54 4 13 28 53 9 15 2 22 52 55
Route #7: 40 56 8 25 51 34 33 48 46
cost 1505.9769287109375